language ESSENCE' 1.0
$---------------------------------------------------------------------------
$ size of the matrix
$---------------------------------------------------------------------------
letting mainRow be 4
letting mainCol be 4

letting topRows be 2
letting leftCols be 3

$---------------------------------------------------------------------------
$ pair 1:
$---------------------------------------------------------------------------
$letting leftMatrix be [
$[0, 0],
$[1, 0],
$[0, 0],
$[0, 0]
$]
$
$letting topMatrix be [
$[1, 0, 0, 0],
$[0, 0, 0, 0]
$]
$---------------------------------------------------------------------------
$ pair 2:
$---------------------------------------------------------------------------
$letting leftMatrix be [
$[1, 0],
$[0, 0],
$[0, 0],
$[0, 0]
$]
$
$letting topMatrix be [
$[0, 0, 1, 0],
$[0, 0, 0, 0]
$]
$---------------------------------------------------------------------------
$ pair 3:
$---------------------------------------------------------------------------
$letting leftMatrix be [
$[1, 2],
$[0, 0],
$[0, 0],
$[0, 0]
$]
$
$letting topMatrix be [
$[1, 0, 1, 1],
$[0, 0, 0, 0]
$]

$$---------------------------------------------------------------------------
$$ pair 4:
$$---------------------------------------------------------------------------
$letting leftMatrix be [
$[1, 0],
$[2, 0],
$[0, 0],
$[0, 0]
$]
$
$letting topMatrix be [
$[1, 0, 1, 1],
$[0, 0, 0, 0]
$]

$$---------------------------------------------------------------------------
$$ pair 5:
$$---------------------------------------------------------------------------
$letting leftMatrix be [
$[1, 1],
$[3, 0],
$[0, 0],
$[0, 0]
$]
$
$letting topMatrix be [
$[2, 1, 2, 0],
$[0, 0, 0, 0]
$]

$---------------------------------------------------------------------------
$ pair 6:
$---------------------------------------------------------------------------
letting leftMatrix be [
[1, 1, 0],
[3, 0, 0],
[0, 0, 0],
[0, 0, 0]
]

letting topMatrix be [
[2, 1, 2, 0],
[0, 0, 0, 0]
]

$---------------------------------------------------------------------------
$ topMatrix:
$---------------------------------------------------------------------------

$letting topMatrix be [
$[1, 0, 0, 0],
$[0, 0, 0, 0]
$]
$
$letting topMatrix be [
$[2, 2, 0, 0],
$[1, 0, 0, 0]
$]

$letting topMatrix be [
$[2, 1, 2, 0],
$[0, 0, 0, 0]
$]


$letting topMatrix be [
$[1, 0, 1, 1],
$[0, 0, 0, 0]
$]

$letting topMatrix be [
$[2, 1, 2, 0],
$[0, 0, 0, 0]
$]



$letting topMatrix be [
$[1, 0, 0, 0],
$[2, 0, 0, 0]
$]

$$ should not work:
$letting topMatrix be [
$[2, 0, 0, 0],
$[2, 0, 0, 0]
$]

$letting topMatrix be [
$[3, 0, 0, 0],
$[0, 0, 0, 0]
$]

$letting topMatrix be [
$[4, 0, 0, 0],
$[0, 0, 0, 0]
$]

$letting topMatrix be [
$[4, 2, 0, 0],
$[0, 0, 0, 0]
$]


$---------------------------------------------------------------------------
$ Experimenting f matrix
$---------------------------------------------------------------------------
$letting f be [
$[1, 0, 0]
$]
